20 51 
22 66 
91 77 
20 1 
39 3 
51 96 
6 26 
80 51 
52 45 
24 44 
65 35 
80 90 
37 3 
20 14 
28 49 
9 48 
52 32 
66 43 
61 87 
96 52 
90 48 
48 48 
74 28 
51 79 
25 75 
75 91 
62 55 
81 99 
10 1 
14 38 
2 75 
38 54 
7 5 
98 20 
44 94 
72 34 
94 20 
34 69 
1 86 
0 26 
61 75 
69 76 
82 51 
75 92 
4 41 
30 7 
17 68 
61 76 
25 11 
97 69 
